NAME          BLANK   
ROWS
 N  OBJROW
 L  R0000000
COLUMNS
    C0000000  OBJROW     -859.         R0000000  498.        
    C0000001  OBJROW     -859.         R0000000  108.        
    C0000002  OBJROW     -368.         R0000000  823.        
    C0000003  OBJROW     -339.         R0000000  9.          
    C0000004  OBJROW     -693.         R0000000  439.        
    C0000005  OBJROW     -915.         R0000000  626.        
    C0000006  OBJROW     -875.         R0000000  853.        
    C0000007  OBJROW     -75.          R0000000  915.        
    C0000008  OBJROW     -651.         R0000000  45.         
    C0000009  OBJROW     -108.         R0000000  493.        
    C0000010  OBJROW     -95.          R0000000  140.        
    C0000011  OBJROW     -932.         R0000000  116.        
    C0000012  OBJROW     -887.         R0000000  183.        
    C0000013  OBJROW     -410.         R0000000  876.        
    C0000014  OBJROW     -595.         R0000000  251.        
    C0000015  OBJROW     -967.         R0000000  253.        
    C0000016  OBJROW     -768.         R0000000  341.        
    C0000017  OBJROW     -598.         R0000000  435.        
    C0000018  OBJROW     -974.         R0000000  577.        
    C0000019  OBJROW     -708.         R0000000  97.         
RHS
    RHS       R0000000  13852.      
BOUNDS
 BV BOUND     C0000000  1.          
 BV BOUND     C0000001  1.          
 BV BOUND     C0000002  1.          
 BV BOUND     C0000003  1.          
 BV BOUND     C0000004  1.          
 BV BOUND     C0000005  1.          
 BV BOUND     C0000006  1.          
 BV BOUND     C0000007  1.          
 BV BOUND     C0000008  1.          
 BV BOUND     C0000009  1.          
 BV BOUND     C0000010  1.          
 BV BOUND     C0000011  1.          
 BV BOUND     C0000012  1.          
 BV BOUND     C0000013  1.          
 BV BOUND     C0000014  1.          
 BV BOUND     C0000015  1.          
 BV BOUND     C0000016  1.          
 BV BOUND     C0000017  1.          
 BV BOUND     C0000018  1.          
 BV BOUND     C0000019  1.          
ENDATA
